g3 1 1 0	# problem unknown
 90 78 1 0 78 	# vars, constraints, objectives, ranges, eqns
 18 1 0 0 0 0	# nonlinear constrs, objs; ccons: lin, nonlin, nd, nzlb
 0 0	# network constraints: nonlinear, linear
 30 90 0 	# nonlinear vars in constraints, objectives, both
 0 0 0 1	# linear network variables; functions; arith, flags
 0 0 0 0 0 	# discrete variables: binary, integer, nonlinear (b,c,o)
 240 60 	# nonzeros in Jacobian, obj. gradient
 0 0	# max name lengths: constraints, variables
 0 0 0 0 0	# common exprs: b,c,o,c1,o1
C0
o2
o2
n0.0841168
o5
v0
n2
o5
v1
n0.5
C1
o2
o2
n0.1280849
o5
v2
n2
o5
v3
n0.5
C2
o2
n0.2605
o5
v4
n2.2
C3
o2
o2
n0.0841168
o5
v5
n2
o5
v6
n0.5
C4
o2
o2
n0.1280849
o5
v7
n2
o5
v8
n0.5
C5
o2
n0.2605
o5
v9
n2.2
C6
o2
o2
n0.0841168
o5
v10
n2
o5
v11
n0.5
C7
o2
o2
n0.1280849
o5
v12
n2
o5
v13
n0.5
C8
o2
n0.2605
o5
v14
n2.2
C9
o2
o2
n0.0841168
o5
v15
n2
o5
v16
n0.5
C10
o2
o2
n0.1280849
o5
v17
n2
o5
v18
n0.5
C11
o2
n0.2605
o5
v19
n2.2
C12
o2
o2
n0.0841168
o5
v20
n2
o5
v21
n0.5
C13
o2
o2
n0.1280849
o5
v22
n2
o5
v23
n0.5
C14
o2
n0.2605
o5
v24
n2.2
C15
o2
o2
n0.0841168
o5
v25
n2
o5
v26
n0.5
C16
o2
o2
n0.1280849
o5
v27
n2
o5
v28
n0.5
C17
o2
n0.2605
o5
v29
n2.2
C18
n0
C19
n0
C20
n0
C21
n0
C22
n0
C23
n0
C24
n0
C25
n0
C26
n0
C27
n0
C28
n0
C29
n0
C30
n0
C31
n0
C32
n0
C33
n0
C34
n0
C35
n0
C36
n0
C37
n0
C38
n0
C39
n0
C40
n0
C41
n0
C42
n0
C43
n0
C44
n0
C45
n0
C46
n0
C47
n0
C48
n0
C49
n0
C50
n0
C51
n0
C52
n0
C53
n0
C54
n0
C55
n0
C56
n0
C57
n0
C58
n0
C59
n0
C60
n0
C61
n0
C62
n0
C63
n0
C64
n0
C65
n0
C66
n0
C67
n0
C68
n0
C69
n0
C70
n0
C71
n0
C72
n0
C73
n0
C74
n0
C75
n0
C76
n0
C77
n0
O0 0
o54
60
o2
o0
v30
n-202761.072
o0
v30
n-202761.072
o2
o0
v31
n-232.252
o0
v31
n-232.252
o2
o0
v32
n-277791.816
o0
v32
n-277791.816
o2
o0
v33
n-174.665
o0
v33
n-174.665
o2
o0
v34
n-2636.996
o0
v34
n-2636.996
o2
o0
v35
n-180.539
o0
v35
n-180.539
o2
o0
v36
n-59987.0235
o0
v36
n-59987.0235
o2
o0
v37
n-211.558
o0
v37
n-211.558
o2
o0
v38
n-19490.4
o0
v38
n-19490.4
o2
o0
v39
n-232.252
o0
v39
n-232.252
o2
o0
v40
n-202703.646
o0
v40
n-202703.646
o2
o0
v41
n-83.789
o0
v41
n-83.789
o2
o0
v42
n-277849.512
o0
v42
n-277849.512
o2
o0
v43
n-173.255
o0
v43
n-173.255
o2
o0
v44
n-2638.1
o0
v44
n-2638.1
o2
o0
v45
n-179.917
o0
v45
n-179.917
o2
o0
v46
n-59998.59
o0
v46
n-59998.59
o2
o0
v47
n-210.585
o0
v47
n-210.585
o2
o0
v48
n-19555.2
o0
v48
n-19555.2
o2
o0
v49
n-215.254
o0
v49
n-215.254
o2
o0
v50
n-202720.536
o0
v50
n-202720.536
o2
o0
v51
n-82.916
o0
v51
n-82.916
o2
o0
v52
n-277955.288
o0
v52
n-277955.288
o2
o0
v53
n-173.721
o0
v53
n-173.721
o2
o0
v54
n-2639.894
o0
v54
n-2639.894
o2
o0
v55
n-182.676
o0
v55
n-182.676
o2
o0
v56
n-60046.959
o0
v56
n-60046.959
o2
o0
v57
n-207.838
o0
v57
n-207.838
o2
o0
v58
n-19597.6
o0
v58
n-19597.6
o2
o0
v59
n-203.855
o0
v59
n-203.855
o2
o0
v60
n-202808.364
o0
v60
n-202808.364
o2
o0
v61
n-80.134
o0
v61
n-80.134
o2
o0
v62
n-278104.336
o0
v62
n-278104.336
o2
o0
v63
n-178.654
o0
v63
n-178.654
o2
o0
v64
n-2640.906
o0
v64
n-2640.906
o2
o0
v65
n-185.917
o0
v65
n-185.917
o2
o0
v66
n-60074.298
o0
v66
n-60074.298
o2
o0
v67
n-206.416
o0
v67
n-206.416
o2
o0
v68
n-19652.8
o0
v68
n-19652.8
o2
o0
v69
n-186.308
o0
v69
n-186.308
o2
o0
v70
n-202916.46
o0
v70
n-202916.46
o2
o0
v71
n-65.345
o0
v71
n-65.345
o2
o0
v72
n-278224.536
o0
v72
n-278224.536
o2
o0
v73
n-188.01
o0
v73
n-188.01
o2
o0
v74
n-2641.458
o0
v74
n-2641.458
o2
o0
v75
n-192.568
o0
v75
n-192.568
o2
o0
v76
n-60091.122
o0
v76
n-60091.122
o2
o0
v77
n-204.3
o0
v77
n-204.3
o2
o0
v78
n-19708.8
o0
v78
n-19708.8
o2
o0
v79
n-201.1
o0
v79
n-201.1
o2
o0
v80
n-202953.618
o0
v80
n-202953.618
o2
o0
v81
n-72.005
o0
v81
n-72.005
o2
o0
v82
n-278277.424
o0
v82
n-278277.424
o2
o0
v83
n-193.833
o0
v83
n-193.833
o2
o0
v84
n-2641.458
o0
v84
n-2641.458
o2
o0
v85
n-196.651
o0
v85
n-196.651
o2
o0
v86
n-60082.71
o0
v86
n-60082.71
o2
o0
v87
n-204.25
o0
v87
n-204.25
o2
o0
v88
n-19706.4
o0
v88
n-19706.4
o2
o0
v89
n-241.079
o0
v89
n-241.079
d78
0 1
1 1
2 1
3 1
4 1
5 1
6 1
7 1
8 1
9 1
10 1
11 1
12 1
13 1
14 1
15 1
16 1
17 1
18 1
19 1
20 1
21 1
22 1
23 1
24 1
25 1
26 1
27 1
28 1
29 1
30 1
31 1
32 1
33 1
34 1
35 1
36 1
37 1
38 1
39 1
40 1
41 1
42 1
43 1
44 1
45 1
46 1
47 1
48 1
49 1
50 1
51 1
52 1
53 1
54 1
55 1
56 1
57 1
58 1
59 1
60 1
61 1
62 1
63 1
64 1
65 1
66 1
67 1
68 1
69 1
70 1
71 1
72 1
73 1
74 1
75 1
76 1
77 1
x90
0 1.0
1 1.0
2 1.0
3 1.0
4 1.0
5 1.0
6 1.0
7 1.0
8 1.0
9 1.0
10 1.0
11 1.0
12 1.0
13 1.0
14 1.0
15 1.0
16 1.0
17 1.0
18 1.0
19 1.0
20 1.0
21 1.0
22 1.0
23 1.0
24 1.0
25 1.0
26 1.0
27 1.0
28 1.0
29 1.0
30 1.0
31 1.0
32 1.0
33 1.0
34 1.0
35 1.0
36 1.0
37 1.0
38 1.0
39 1.0
40 1.0
41 1.0
42 1.0
43 1.0
44 1.0
45 1.0
46 1.0
47 1.0
48 1.0
49 1.0
50 1.0
51 1.0
52 1.0
53 1.0
54 1.0
55 1.0
56 1.0
57 1.0
58 1.0
59 1.0
60 1.0
61 1.0
62 1.0
63 1.0
64 1.0
65 1.0
66 1.0
67 1.0
68 1.0
69 1.0
70 1.0
71 1.0
72 1.0
73 1.0
74 1.0
75 1.0
76 1.0
77 1.0
78 1.0
79 1.0
80 1.0
81 1.0
82 1.0
83 1.0
84 1.0
85 1.0
86 1.0
87 1.0
88 1.0
89 1.0
r
4 0.0
4 0.0
4 0.0
4 0.0
4 0.0
4 0.0
4 0.0
4 0.0
4 0.0
4 0.0
4 0.0
4 0.0
4 0.0
4 0.0
4 0.0
4 0.0
4 0.0
4 0.0
4 -22.0
4 -1.0
4 3.0
4 -27.2
4 51.5
4 44.0
4 162.0
4 8.0
4 12.5
4 53.5
4 -11.0
4 60.0
4 10.0
4 18.0
4 39.0
4 124.0
4 246.0
4 6.0
4 9.7
4 17.2
4 127.0
4 175.0
4 3.0
4 10.0
4 30.2
4 78.0
4 156.0
4 3.0
4 14.0
4 23.2
4 543.4
4 0.0
4 543.4
4 0.0
4 550.11
4 543.4
4 0.0
4 543.4
4 0.0
4 550.11
4 543.4
4 0.0
4 543.4
4 0.0
4 550.11
4 543.4
4 0.0
4 543.4
4 0.0
4 550.11
4 543.4
4 0.0
4 543.4
4 0.0
4 550.11
4 543.4
4 0.0
4 543.4
4 0.0
4 550.11
b
3
2 0.0001
3
2 0.0001
2 0.0001
3
2 0.0001
3
2 0.0001
2 0.0001
3
2 0.0001
3
2 0.0001
2 0.0001
3
2 0.0001
3
2 0.0001
2 0.0001
3
2 0.0001
3
2 0.0001
2 0.0001
3
2 0.0001
3
2 0.0001
2 0.0001
3
3
3
3
3
3
3
3
3
3
3
3
3
3
3
3
3
3
3
3
3
3
3
3
3
3
3
3
3
3
3
3
3
3
3
3
3
3
3
3
3
3
3
3
3
3
3
3
3
3
3
3
3
3
3
3
3
3
3
3
k89
2
4
6
8
10
12
14
16
18
20
22
24
26
28
30
32
34
36
38
40
42
44
46
48
50
52
54
56
58
60
62
64
68
71
77
80
84
87
89
90
92
94
98
101
107
110
114
117
119
120
122
124
128
131
137
140
144
147
149
150
152
154
158
161
167
170
174
177
179
180
182
184
188
191
197
200
204
207
209
210
212
214
218
221
227
230
234
237
239
J0 3
33 -1
0 0
1 0
J1 3
35 -1
2 0
3 0
J2 2
37 -1
4 0
J3 3
43 -1
5 0
6 0
J4 3
45 -1
7 0
8 0
J5 2
47 -1
9 0
J6 3
53 -1
10 0
11 0
J7 3
55 -1
12 0
13 0
J8 2
57 -1
14 0
J9 3
63 -1
15 0
16 0
J10 3
65 -1
17 0
18 0
J11 2
67 -1
19 0
J12 3
73 -1
20 0
21 0
J13 3
75 -1
22 0
23 0
J14 2
77 -1
24 0
J15 3
83 -1
25 0
26 0
J16 3
85 -1
27 0
28 0
J17 2
87 -1
29 0
J18 3
30 -1
31 1
40 1
J19 4
31 -1
32 -1
33 1
42 1
J20 4
33 -1
34 -1
35 1
44 1
J21 4
35 -1
36 -1
37 1
46 1
J22 4
37 -1
38 -1
39 1
48 1
J23 3
40 -1
41 1
50 1
J24 4
41 -1
42 -1
43 1
52 1
J25 4
43 -1
44 -1
45 1
54 1
J26 4
45 -1
46 -1
47 1
56 1
J27 4
47 -1
48 -1
49 1
58 1
J28 3
50 -1
51 1
60 1
J29 4
51 -1
52 -1
53 1
62 1
J30 4
53 -1
54 -1
55 1
64 1
J31 4
55 -1
56 -1
57 1
66 1
J32 4
57 -1
58 -1
59 1
68 1
J33 3
60 -1
61 1
70 1
J34 4
61 -1
62 -1
63 1
72 1
J35 4
63 -1
64 -1
65 1
74 1
J36 4
65 -1
66 -1
67 1
76 1
J37 4
67 -1
68 -1
69 1
78 1
J38 3
70 -1
71 1
80 1
J39 4
71 -1
72 -1
73 1
82 1
J40 4
73 -1
74 -1
75 1
84 1
J41 4
75 -1
76 -1
77 1
86 1
J42 4
77 -1
78 -1
79 1
88 1
J43 3
30 1
80 -1
81 1
J44 4
32 1
81 -1
82 -1
83 1
J45 4
34 1
83 -1
84 -1
85 1
J46 4
36 1
85 -1
86 -1
87 1
J47 4
38 1
87 -1
88 -1
89 1
J48 3
32 0.0010399334442595673
34 0.10869565217391305
0 -1
J49 3
32 0.0020798668885191347
34 -0.2173913043478261
1 -1
J50 2
34 0.2173913043478261
2 -1
J51 3
34 0.2173913043478261
36 -0.009510223490252021
3 -1
J52 2
36 0.009510223490252021
4 -1
J53 3
42 0.0010399334442595673
44 0.10869565217391305
5 -1
J54 3
42 0.0020798668885191347
44 -0.2173913043478261
6 -1
J55 2
44 0.2173913043478261
7 -1
J56 3
44 0.2173913043478261
46 -0.009510223490252021
8 -1
J57 2
46 0.009510223490252021
9 -1
J58 3
52 0.0010399334442595673
54 0.10869565217391305
10 -1
J59 3
52 0.0020798668885191347
54 -0.2173913043478261
11 -1
J60 2
54 0.2173913043478261
12 -1
J61 3
54 0.2173913043478261
56 -0.009510223490252021
13 -1
J62 2
56 0.009510223490252021
14 -1
J63 3
62 0.0010399334442595673
64 0.10869565217391305
15 -1
J64 3
62 0.0020798668885191347
64 -0.2173913043478261
16 -1
J65 2
64 0.2173913043478261
17 -1
J66 3
64 0.2173913043478261
66 -0.009510223490252021
18 -1
J67 2
66 0.009510223490252021
19 -1
J68 3
72 0.0010399334442595673
74 0.10869565217391305
20 -1
J69 3
72 0.0020798668885191347
74 -0.2173913043478261
21 -1
J70 2
74 0.2173913043478261
22 -1
J71 3
74 0.2173913043478261
76 -0.009510223490252021
23 -1
J72 2
76 0.009510223490252021
24 -1
J73 3
82 0.0010399334442595673
84 0.10869565217391305
25 -1
J74 3
82 0.0020798668885191347
84 -0.2173913043478261
26 -1
J75 2
84 0.2173913043478261
27 -1
J76 3
84 0.2173913043478261
86 -0.009510223490252021
28 -1
J77 2
86 0.009510223490252021
29 -1
G0 60
30 0
31 0
32 0
33 0
34 0
35 0
36 0
37 0
38 0
39 0
40 0
41 0
42 0
43 0
44 0
45 0
46 0
47 0
48 0
49 0
50 0
51 0
52 0
53 0
54 0
55 0
56 0
57 0
58 0
59 0
60 0
61 0
62 0
63 0
64 0
65 0
66 0
67 0
68 0
69 0
70 0
71 0
72 0
73 0
74 0
75 0
76 0
77 0
78 0
79 0
80 0
81 0
82 0
83 0
84 0
85 0
86 0
87 0
88 0
89 0
